(set-info :source |printed by MathSAT|)
(declare-fun hhv_ULTIMATE.start_L-1_0_Int () Int)
(declare-fun .x.130 () Int)
(declare-fun hbv_ULTIMATE.start_ULTIMATE.startENTRY_1_Array_Int_Int () (Array Int Int))
(declare-fun .x.131 () (Array Int Int))
(declare-fun hhv_ULTIMATE.start_L-1_2_Array_Int_Int () (Array Int Int))
(declare-fun .x.132 () (Array Int Int))
(declare-fun hhv_ULTIMATE.start_L-1_3_Array_Int_Array_Int_Int () (Array Int (Array Int Int)))
(declare-fun .x.133 () (Array Int (Array Int Int)))
(declare-fun hhv_ULTIMATE.start_L-1_4_Array_Int_Array_Int_Int () (Array Int (Array Int Int)))
(declare-fun .x.134 () (Array Int (Array Int Int)))
(declare-fun hbv_ULTIMATE.start_ULTIMATE.startENTRY_5_Int () Int)
(declare-fun .x.135 () Int)
(declare-fun hhv_ULTIMATE.start_L-1_6_Int () Int)
(declare-fun .x.136 () Int)
(declare-fun hhv_ULTIMATE.start_L-1_7_Array_Int_Int () (Array Int Int))
(declare-fun .x.137 () (Array Int Int))
(declare-fun hhv_ULTIMATE.start_L-1_8_Array_Int_Int () (Array Int Int))
(declare-fun .x.138 () (Array Int Int))
(declare-fun hbv_ULTIMATE.start_ULTIMATE.startENTRY_9_Int () Int)
(declare-fun .x.139 () Int)
(declare-fun hhv_ULTIMATE.start_L-1_10_Int () Int)
(declare-fun .x.140 () Int)
(declare-fun hhv_ULTIMATE.start_L-1_11_Int () Int)
(declare-fun .x.141 () Int)
(declare-fun hhv_ULTIMATE.start_L-1_12_Int () Int)
(declare-fun .x.142 () Int)
(declare-fun hhv_ULTIMATE.start_L-1_13_Int () Int)
(declare-fun .x.143 () Int)
(declare-fun hhv_ULTIMATE.start_L-1_14_Int () Int)
(declare-fun .x.144 () Int)
(declare-fun hhv_ULTIMATE.start_L-1_15_Int () Int)
(declare-fun .x.145 () Int)
(declare-fun hhv_ULTIMATE.start_L-1_16_Int () Int)
(declare-fun .x.146 () Int)
(declare-fun hhv_ULTIMATE.start_L-1_17_Int () Int)
(declare-fun .x.147 () Int)
(declare-fun hhv_ULTIMATE.start_L-1_18_Int () Int)
(declare-fun .x.148 () Int)
(declare-fun hhv_ULTIMATE.start_L-1_19_Int () Int)
(declare-fun .x.149 () Int)
(declare-fun hhv_ULTIMATE.start_L-1_20_Int () Int)
(declare-fun .x.150 () Int)
(declare-fun hhv_ULTIMATE.start_L-1_21_Int () Int)
(declare-fun .x.151 () Int)
(declare-fun hhv_ULTIMATE.start_L-1_22_Int () Int)
(declare-fun .x.152 () Int)
(declare-fun hhv_ULTIMATE.start_L-1_23_Int () Int)
(declare-fun .x.153 () Int)
(declare-fun hhv_ULTIMATE.start_L-1_24_Int () Int)
(declare-fun .x.154 () Int)
(declare-fun hhv_ULTIMATE.start_L-1_25_Int () Int)
(declare-fun .x.155 () Int)
(declare-fun hhv_ULTIMATE.start_L-1_26_Int () Int)
(declare-fun .x.156 () Int)
(declare-fun hhv_ULTIMATE.start_L-1_27_Int () Int)
(declare-fun .x.157 () Int)
(declare-fun hhv_ULTIMATE.start_L-1_28_Int () Int)
(declare-fun .x.158 () Int)
(declare-fun hhv_ULTIMATE.start_L-1_29_Int () Int)
(declare-fun .x.159 () Int)
(declare-fun hhv_ULTIMATE.start_L-1_30_Int () Int)
(declare-fun .x.160 () Int)
(declare-fun hhv_ULTIMATE.start_L-1_31_Int () Int)
(declare-fun .x.161 () Int)
(declare-fun hhv_ULTIMATE.start_L-1_32_Bool () Bool)
(declare-fun hhv_ULTIMATE.start_ULTIMATE.startEXIT_32_Bool () Bool)
(declare-fun .loc.3 () Bool)
(declare-fun .loc.5 () Bool)
(declare-fun .loc.4 () Bool)
(declare-fun .loc.6 () Bool)
(declare-fun hbv_ULTIMATE.start_L-1_1_Array_Int_Int () (Array Int Int))
(declare-fun hbv_ULTIMATE.start_L16_27_Int_0 () Int)
(declare-fun hbv_ULTIMATE.start_L16_23_Int_0 () Int)
(declare-fun hbv_ULTIMATE.start_L16_1_Array_Int_Int_0 () (Array Int Int))
(declare-fun hbv_ULTIMATE.start_L16_25_Int_0 () Int)
(declare-fun hbv_ULTIMATE.start_L16_25_Int () Int)
(declare-fun hbv_ULTIMATE.start_L16_29_Int_0 () Int)
(define-fun .def_8 () Int (! hhv_ULTIMATE.start_L-1_0_Int :next |.x.130|))
(define-fun .def_10 () (Array Int Int) (! hbv_ULTIMATE.start_ULTIMATE.startENTRY_1_Array_Int_Int :next |.x.131|))
(define-fun .def_12 () (Array Int Int) (! hhv_ULTIMATE.start_L-1_2_Array_Int_Int :next |.x.132|))
(define-fun .def_14 () (Array Int (Array Int Int)) (! hhv_ULTIMATE.start_L-1_3_Array_Int_Array_Int_Int :next |.x.133|))
(define-fun .def_16 () (Array Int (Array Int Int)) (! hhv_ULTIMATE.start_L-1_4_Array_Int_Array_Int_Int :next |.x.134|))
(define-fun .def_18 () Int (! hbv_ULTIMATE.start_ULTIMATE.startENTRY_5_Int :next |.x.135|))
(define-fun .def_20 () Int (! hhv_ULTIMATE.start_L-1_6_Int :next |.x.136|))
(define-fun .def_22 () (Array Int Int) (! hhv_ULTIMATE.start_L-1_7_Array_Int_Int :next |.x.137|))
(define-fun .def_24 () (Array Int Int) (! hhv_ULTIMATE.start_L-1_8_Array_Int_Int :next |.x.138|))
(define-fun .def_26 () Int (! hbv_ULTIMATE.start_ULTIMATE.startENTRY_9_Int :next |.x.139|))
(define-fun .def_28 () Int (! hhv_ULTIMATE.start_L-1_10_Int :next |.x.140|))
(define-fun .def_30 () Int (! hhv_ULTIMATE.start_L-1_11_Int :next |.x.141|))
(define-fun .def_32 () Int (! hhv_ULTIMATE.start_L-1_12_Int :next |.x.142|))
(define-fun .def_34 () Int (! hhv_ULTIMATE.start_L-1_13_Int :next |.x.143|))
(define-fun .def_36 () Int (! hhv_ULTIMATE.start_L-1_14_Int :next |.x.144|))
(define-fun .def_38 () Int (! hhv_ULTIMATE.start_L-1_15_Int :next |.x.145|))
(define-fun .def_40 () Int (! hhv_ULTIMATE.start_L-1_16_Int :next |.x.146|))
(define-fun .def_42 () Int (! hhv_ULTIMATE.start_L-1_17_Int :next |.x.147|))
(define-fun .def_44 () Int (! hhv_ULTIMATE.start_L-1_18_Int :next |.x.148|))
(define-fun .def_46 () Int (! hhv_ULTIMATE.start_L-1_19_Int :next |.x.149|))
(define-fun .def_48 () Int (! hhv_ULTIMATE.start_L-1_20_Int :next |.x.150|))
(define-fun .def_50 () Int (! hhv_ULTIMATE.start_L-1_21_Int :next |.x.151|))
(define-fun .def_52 () Int (! hhv_ULTIMATE.start_L-1_22_Int :next |.x.152|))
(define-fun .def_54 () Int (! hhv_ULTIMATE.start_L-1_23_Int :next |.x.153|))
(define-fun .def_56 () Int (! hhv_ULTIMATE.start_L-1_24_Int :next |.x.154|))
(define-fun .def_58 () Int (! hhv_ULTIMATE.start_L-1_25_Int :next |.x.155|))
(define-fun .def_60 () Int (! hhv_ULTIMATE.start_L-1_26_Int :next |.x.156|))
(define-fun .def_62 () Int (! hhv_ULTIMATE.start_L-1_27_Int :next |.x.157|))
(define-fun .def_64 () Int (! hhv_ULTIMATE.start_L-1_28_Int :next |.x.158|))
(define-fun .def_66 () Int (! hhv_ULTIMATE.start_L-1_29_Int :next |.x.159|))
(define-fun .def_68 () Int (! hhv_ULTIMATE.start_L-1_30_Int :next |.x.160|))
(define-fun .def_70 () Int (! hhv_ULTIMATE.start_L-1_31_Int :next |.x.161|))
(define-fun .def_72 () Bool (! hhv_ULTIMATE.start_L-1_32_Bool :next |hhv_ULTIMATE.start_ULTIMATE.startEXIT_32_Bool|))
(define-fun .def_74 () Bool (! .loc.3 :next |.loc.5|))
(define-fun .def_76 () Bool (! .loc.4 :next |.loc.6|))
(define-fun .def_84 () (Array Int Int) (! hbv_ULTIMATE.start_L-1_1_Array_Int_Int :next |.xtv.1|))
(define-fun .def_102 () Int (! hbv_ULTIMATE.start_L16_27_Int_0 :next |.xtv.2|))
(define-fun .def_103 () Int (! hbv_ULTIMATE.start_L16_23_Int_0 :next |.xtv.3|))
(define-fun .def_104 () (Array Int Int) (! hbv_ULTIMATE.start_L16_1_Array_Int_Int_0 :next |.xtv.4|))
(define-fun .def_110 () Int (! hbv_ULTIMATE.start_L16_25_Int_0 :next |.xtv.5|))
(define-fun .def_118 () Int (! hbv_ULTIMATE.start_L16_25_Int :next |.xtv.6|))
(define-fun .def_148 () Int (! hbv_ULTIMATE.start_L16_29_Int_0 :next |.xtv.7|))
(define-fun .def_331 () Bool (not .def_76))
(define-fun .def_91 () Bool (not .def_74))
(define-fun .def_345 () Bool (and .def_91 .def_331))
(define-fun .def_339 () Bool (= .def_10 .def_12))
(define-fun .def_338 () Bool (not .def_72))
(define-fun .def_340 () Bool (and .def_338 .def_339))
(define-fun .def_337 () Bool (= .def_22 .def_24))
(define-fun .def_341 () Bool (and .def_337 .def_340))
(define-fun .def_336 () Bool (= .def_18 .def_20))
(define-fun .def_342 () Bool (and .def_336 .def_341))
(define-fun .def_335 () Bool (= .def_14 .def_16))
(define-fun .def_343 () Bool (and .def_335 .def_342))
(define-fun .def_334 () Bool (= .def_26 .def_28))
(define-fun .def_344 () Bool (and .def_334 .def_343))
(define-fun .def_346 () Bool (! (and .def_344 .def_345) :init true))
(define-fun .def_329 () Bool (= .def_28 .x.140))
(define-fun .def_327 () Bool (= .def_24 .x.138))
(define-fun .def_325 () Bool (= .def_20 .x.136))
(define-fun .def_323 () Bool (= .def_16 .x.134))
(define-fun .def_321 () Bool (= .def_8 .x.130))
(define-fun .def_320 () Bool (= .def_12 .x.132))
(define-fun .def_322 () Bool (and .def_320 .def_321))
(define-fun .def_324 () Bool (and .def_322 .def_323))
(define-fun .def_326 () Bool (and .def_324 .def_325))
(define-fun .def_328 () Bool (and .def_326 .def_327))
(define-fun .def_330 () Bool (and .def_328 .def_329))
(define-fun .def_332 () Bool (and .def_330 .def_331))
(define-fun .def_315 () Bool (not .loc.5))
(define-fun .def_316 () Bool (and .loc.6 .def_315))
(define-fun .def_163 () Bool (= .def_118 0))
(define-fun .def_310 () Bool (not .def_163))
(define-fun .def_311 () Bool (or .def_72 .def_310))
(define-fun .def_115 () (Array Int Int) (select .x.133 .x.156))
(define-fun .def_116 () Int (select .def_115 .x.141))
(define-fun .def_304 () Bool (= .def_116 .def_118))
(define-fun .def_300 () (Array Int Int) (select .def_14 .x.153))
(define-fun .def_301 () (Array Int Int) (store .def_300 .x.143 .x.148))
(define-fun .def_302 () (Array Int (Array Int Int)) (store .def_14 .x.153 .def_301))
(define-fun .def_303 () Bool (= .x.133 .def_302))
(define-fun .def_305 () Bool (and .def_303 .def_304))
(define-fun .def_125 () Bool (<= (- 2147483648) .x.148))
(define-fun .def_306 () Bool (and .def_125 .def_305))
(define-fun .def_128 () Bool (<= .x.148 2147483647))
(define-fun .def_307 () Bool (and .def_128 .def_306))
(define-fun .def_308 () Bool (or .def_72 .def_307))
(define-fun .def_295 () Int (select .def_84 .x.153))
(define-fun .def_296 () Bool (= .def_295 0))
(define-fun .def_292 () Bool (<= .x.130 .x.153))
(define-fun .def_293 () Bool (not .def_292))
(define-fun .def_288 () Bool (= .x.159 0))
(define-fun .def_284 () Bool (= .x.153 0))
(define-fun .def_285 () Bool (not .def_284))
(define-fun .def_282 () Bool (= .x.141 .x.143))
(define-fun .def_278 () Bool (= .x.157 0))
(define-fun .def_279 () Bool (not .def_278))
(define-fun .def_275 () Bool (<= .x.130 .x.157))
(define-fun .def_276 () Bool (not .def_275))
(define-fun .def_272 () Bool (= .x.142 .x.157))
(define-fun .def_270 () Bool (= .x.143 0))
(define-fun .def_261 () Bool (= .x.153 .x.156))
(define-fun .def_139 () Bool (= .x.149 .x.160))
(define-fun .def_262 () Bool (and .def_139 .def_261))
(define-fun .def_141 () Bool (= .x.144 .x.160))
(define-fun .def_263 () Bool (and .def_141 .def_262))
(define-fun .def_255 () (Array Int Int) (store .def_84 .x.153 1))
(define-fun .def_259 () Int (select .def_255 .x.157))
(define-fun .def_260 () Bool (= .def_259 0))
(define-fun .def_264 () Bool (and .def_260 .def_263))
(define-fun .def_258 () Bool (= .x.149 .x.159))
(define-fun .def_265 () Bool (and .def_258 .def_264))
(define-fun .def_151 () Bool (= .x.141 .x.158))
(define-fun .def_266 () Bool (and .def_151 .def_265))
(define-fun .def_256 () (Array Int Int) (store .def_255 .x.157 1))
(define-fun .def_257 () Bool (= .x.131 .def_256))
(define-fun .def_267 () Bool (and .def_257 .def_266))
(define-fun .def_252 () (Array Int Int) (store .def_22 .x.153 4))
(define-fun .def_253 () (Array Int Int) (store .def_252 .x.157 4))
(define-fun .def_254 () Bool (= .x.137 .def_253))
(define-fun .def_268 () Bool (and .def_254 .def_267))
(define-fun .def_161 () Bool (= .x.142 .x.146))
(define-fun .def_269 () Bool (and .def_161 .def_268))
(define-fun .def_271 () Bool (and .def_269 .def_270))
(define-fun .def_273 () Bool (and .def_271 .def_272))
(define-fun .def_166 () Bool (= .x.146 .x.161))
(define-fun .def_274 () Bool (and .def_166 .def_273))
(define-fun .def_277 () Bool (and .def_274 .def_276))
(define-fun .def_280 () Bool (and .def_277 .def_279))
(define-fun .def_173 () Bool (= .x.151 .x.161))
(define-fun .def_172 () Bool (= .x.144 .x.147))
(define-fun .def_174 () Bool (and .def_172 .def_173))
(define-fun .def_175 () Int (ite .def_174 1 0))
(define-fun .def_176 () Bool (= .x.148 .def_175))
(define-fun .def_281 () Bool (and .def_176 .def_280))
(define-fun .def_283 () Bool (and .def_281 .def_282))
(define-fun .def_286 () Bool (and .def_283 .def_285))
(define-fun .def_182 () Bool (= .x.147 .x.158))
(define-fun .def_287 () Bool (and .def_182 .def_286))
(define-fun .def_289 () Bool (and .def_287 .def_288))
(define-fun .def_186 () Bool (= .x.145 .x.156))
(define-fun .def_290 () Bool (and .def_186 .def_289))
(define-fun .def_188 () Bool (= .x.145 .x.151))
(define-fun .def_291 () Bool (and .def_188 .def_290))
(define-fun .def_294 () Bool (and .def_291 .def_293))
(define-fun .def_297 () Bool (and .def_294 .def_296))
(define-fun .def_298 () Bool (or .def_72 .def_297))
(define-fun .def_83 () (Array Int Int) (store .def_10 0 0))
(define-fun .def_85 () Bool (= .def_83 .def_84))
(define-fun .def_81 () Bool (= .x.139 0))
(define-fun .def_80 () Bool (= .x.135 0))
(define-fun .def_82 () Bool (and .def_80 .def_81))
(define-fun .def_86 () Bool (and .def_82 .def_85))
(define-fun .def_87 () Bool (or .def_72 .def_86))
(define-fun .def_250 () Bool (and hhv_ULTIMATE.start_ULTIMATE.startEXIT_32_Bool .def_87))
(define-fun .def_89 () Bool (= .def_48 .x.150))
(define-fun .def_251 () Bool (and .def_89 .def_250))
(define-fun .def_299 () Bool (and .def_251 .def_298))
(define-fun .def_309 () Bool (and .def_299 .def_308))
(define-fun .def_312 () Bool (and .def_309 .def_311))
(define-fun .def_313 () Bool (and .def_91 .def_312))
(define-fun .def_247 () Bool (= .x.150 .def_56))
(define-fun .def_248 () Bool (or .def_72 .def_247))
(define-fun .def_245 () Bool (= .def_10 .x.131))
(define-fun .def_243 () Bool (= .def_14 .x.133))
(define-fun .def_241 () Bool (= .def_18 .x.135))
(define-fun .def_239 () Bool (= .def_22 .x.137))
(define-fun .def_237 () Bool (= .def_26 .x.139))
(define-fun .def_235 () Bool (= .def_30 .x.141))
(define-fun .def_233 () Bool (= .def_32 .x.142))
(define-fun .def_231 () Bool (= .def_34 .x.143))
(define-fun .def_229 () Bool (= .def_36 .x.144))
(define-fun .def_227 () Bool (= .def_38 .x.145))
(define-fun .def_225 () Bool (= .def_40 .x.146))
(define-fun .def_223 () Bool (= .def_42 .x.147))
(define-fun .def_221 () Bool (= .def_44 .x.148))
(define-fun .def_219 () Bool (= .def_46 .x.149))
(define-fun .def_217 () Bool (= .def_50 .x.151))
(define-fun .def_215 () Bool (= .def_52 .x.152))
(define-fun .def_213 () Bool (= .def_54 .x.153))
(define-fun .def_211 () Bool (= .def_56 .x.154))
(define-fun .def_209 () Bool (= .def_58 .x.155))
(define-fun .def_207 () Bool (= .def_60 .x.156))
(define-fun .def_205 () Bool (= .def_62 .x.157))
(define-fun .def_203 () Bool (= .def_64 .x.158))
(define-fun .def_201 () Bool (= .def_66 .x.159))
(define-fun .def_199 () Bool (= .def_68 .x.160))
(define-fun .def_197 () Bool (= .def_70 .x.161))
(define-fun .def_99 () Bool (= .def_72 hhv_ULTIMATE.start_ULTIMATE.startEXIT_32_Bool))
(define-fun .def_196 () Bool (and .def_74 .def_99))
(define-fun .def_198 () Bool (and .def_196 .def_197))
(define-fun .def_200 () Bool (and .def_198 .def_199))
(define-fun .def_202 () Bool (and .def_200 .def_201))
(define-fun .def_204 () Bool (and .def_202 .def_203))
(define-fun .def_206 () Bool (and .def_204 .def_205))
(define-fun .def_208 () Bool (and .def_206 .def_207))
(define-fun .def_210 () Bool (and .def_208 .def_209))
(define-fun .def_212 () Bool (and .def_210 .def_211))
(define-fun .def_214 () Bool (and .def_212 .def_213))
(define-fun .def_216 () Bool (and .def_214 .def_215))
(define-fun .def_218 () Bool (and .def_216 .def_217))
(define-fun .def_220 () Bool (and .def_218 .def_219))
(define-fun .def_222 () Bool (and .def_220 .def_221))
(define-fun .def_224 () Bool (and .def_222 .def_223))
(define-fun .def_226 () Bool (and .def_224 .def_225))
(define-fun .def_228 () Bool (and .def_226 .def_227))
(define-fun .def_230 () Bool (and .def_228 .def_229))
(define-fun .def_232 () Bool (and .def_230 .def_231))
(define-fun .def_234 () Bool (and .def_232 .def_233))
(define-fun .def_236 () Bool (and .def_234 .def_235))
(define-fun .def_238 () Bool (and .def_236 .def_237))
(define-fun .def_240 () Bool (and .def_238 .def_239))
(define-fun .def_242 () Bool (and .def_240 .def_241))
(define-fun .def_244 () Bool (and .def_242 .def_243))
(define-fun .def_246 () Bool (and .def_244 .def_245))
(define-fun .def_249 () Bool (and .def_246 .def_248))
(define-fun .def_314 () Bool (or .def_249 .def_313))
(define-fun .def_317 () Bool (and .def_314 .def_316))
(define-fun .def_191 () Int (select .def_84 .def_103))
(define-fun .def_192 () Bool (= .def_191 0))
(define-fun .def_184 () Bool (= .def_148 0))
(define-fun .def_179 () Bool (= .def_103 0))
(define-fun .def_180 () Bool (not .def_179))
(define-fun .def_169 () Bool (= .def_102 0))
(define-fun .def_170 () Bool (not .def_169))
(define-fun .def_157 () (Array Int Int) (store .def_22 .def_103 4))
(define-fun .def_158 () (Array Int Int) (store .def_157 .def_102 4))
(define-fun .def_159 () Bool (= .x.137 .def_158))
(define-fun .def_144 () (Array Int Int) (store .def_84 .def_103 1))
(define-fun .def_153 () (Array Int Int) (store .def_144 .def_102 1))
(define-fun .def_154 () Bool (= .def_104 .def_153))
(define-fun .def_149 () Bool (= .x.149 .def_148))
(define-fun .def_145 () Int (select .def_144 .def_102))
(define-fun .def_146 () Bool (= .def_145 0))
(define-fun .def_138 () Bool (= .x.156 .def_103))
(define-fun .def_140 () Bool (and .def_138 .def_139))
(define-fun .def_142 () Bool (and .def_140 .def_141))
(define-fun .def_147 () Bool (and .def_142 .def_146))
(define-fun .def_150 () Bool (and .def_147 .def_149))
(define-fun .def_152 () Bool (and .def_150 .def_151))
(define-fun .def_155 () Bool (and .def_152 .def_154))
(define-fun .def_160 () Bool (and .def_155 .def_159))
(define-fun .def_162 () Bool (and .def_160 .def_161))
(define-fun .def_164 () Bool (and .def_162 .def_163))
(define-fun .def_137 () Bool (= .x.142 .def_102))
(define-fun .def_165 () Bool (and .def_137 .def_164))
(define-fun .def_167 () Bool (and .def_165 .def_166))
(define-fun .def_135 () Bool (<= .x.130 .def_102))
(define-fun .def_136 () Bool (not .def_135))
(define-fun .def_168 () Bool (and .def_136 .def_167))
(define-fun .def_171 () Bool (and .def_168 .def_170))
(define-fun .def_177 () Bool (and .def_171 .def_176))
(define-fun .def_134 () Bool (= .x.141 .def_118))
(define-fun .def_178 () Bool (and .def_134 .def_177))
(define-fun .def_181 () Bool (and .def_178 .def_180))
(define-fun .def_183 () Bool (and .def_181 .def_182))
(define-fun .def_185 () Bool (and .def_183 .def_184))
(define-fun .def_187 () Bool (and .def_185 .def_186))
(define-fun .def_189 () Bool (and .def_187 .def_188))
(define-fun .def_132 () Bool (<= .x.130 .def_103))
(define-fun .def_133 () Bool (not .def_132))
(define-fun .def_190 () Bool (and .def_133 .def_189))
(define-fun .def_193 () Bool (and .def_190 .def_192))
(define-fun .def_194 () Bool (or hhv_ULTIMATE.start_ULTIMATE.startEXIT_32_Bool .def_193))
(define-fun .def_119 () (Array Int Int) (select .def_14 .def_103))
(define-fun .def_120 () (Array Int Int) (store .def_119 .def_118 .x.148))
(define-fun .def_121 () (Array Int (Array Int Int)) (store .def_14 .def_103 .def_120))
(define-fun .def_122 () Bool (= .x.133 .def_121))
(define-fun .def_117 () Bool (= .def_110 .def_116))
(define-fun .def_123 () Bool (and .def_117 .def_122))
(define-fun .def_126 () Bool (and .def_123 .def_125))
(define-fun .def_129 () Bool (and .def_126 .def_128))
(define-fun .def_130 () Bool (or hhv_ULTIMATE.start_ULTIMATE.startEXIT_32_Bool .def_129))
(define-fun .def_111 () Bool (= .def_110 0))
(define-fun .def_108 () Bool (= .x.154 0))
(define-fun .def_105 () (Array Int Int) (store .def_104 .def_103 0))
(define-fun .def_106 () (Array Int Int) (store .def_105 .def_102 0))
(define-fun .def_107 () Bool (= .x.131 .def_106))
(define-fun .def_109 () Bool (and .def_107 .def_108))
(define-fun .def_112 () Bool (and .def_109 .def_111))
(define-fun .def_113 () Bool (or hhv_ULTIMATE.start_ULTIMATE.startEXIT_32_Bool .def_112))
(define-fun .def_96 () Bool (and .def_87 .def_89))
(define-fun .def_97 () Bool (and .def_91 .def_96))
(define-fun .def_98 () Bool (and .loc.5 .def_97))
(define-fun .def_100 () Bool (and .def_98 .def_99))
(define-fun .def_94 () Bool (not .loc.6))
(define-fun .def_101 () Bool (and .def_94 .def_100))
(define-fun .def_114 () Bool (and .def_101 .def_113))
(define-fun .def_131 () Bool (and .def_114 .def_130))
(define-fun .def_195 () Bool (and .def_131 .def_194))
(define-fun .def_318 () Bool (or .def_195 .def_317))
(define-fun .def_78 () Bool (and .def_72 hhv_ULTIMATE.start_ULTIMATE.startEXIT_32_Bool))
(define-fun .def_88 () Bool (and .def_78 .def_87))
(define-fun .def_90 () Bool (and .def_88 .def_89))
(define-fun .def_92 () Bool (and .def_90 .def_91))
(define-fun .def_93 () Bool (and .loc.5 .def_92))
(define-fun .def_95 () Bool (and .def_93 .def_94))
(define-fun .def_319 () Bool (or .def_95 .def_318))
(define-fun .def_333 () Bool (! (and .def_319 .def_332) :trans true))
(define-fun .def_347 () Bool (and .def_76 .def_91))
(define-fun .def_348 () Bool (and .def_72 .def_347))
(define-fun .def_349 () Bool (! (not .def_348) :invar-property 0))
(assert true)
